N = 8;
Capacity = 16;
Demand = [6, 8, 1, 6, 6, 7, 2, 8];
Distance = [|
  0, 48, 7, 49, 46, 34, 50, 20, 63
| 48, 0, 42, 56, 15, 77, 96, 42, 58
| 7, 42, 0, 45, 39, 38, 56, 20, 58
| 49, 56, 45, 0, 41, 48, 90, 63, 16
| 46, 15, 39, 41, 0, 69, 95, 46, 43
| 34, 77, 38, 48, 69, 0, 47, 53, 64
| 50, 96, 56, 90, 95, 47, 0, 56, 106
| 20, 42, 20, 63, 46, 53, 56, 0, 75
| 63, 58, 58, 16, 43, 64, 106, 75, 0
|];
